p cnf 220 98
1 2 3 0
-1 -2 0
-1 -3 0
-2 -3 0
4 5 6 0
-4 -5 0
-4 -6 0
-5 -6 0
7 8 9 0
-7 -8 0
-7 -9 0
-8 -9 0
10 11 12 0
-10 -11 0
-10 -12 0
-11 -12 0
13 14 15 0
-13 -14 0
-13 -15 0
-14 -15 0
-1 -6 -9 101 0
-1 -5 -9 101 0
-2 -6 -9 101 0
-1 -6 -8 102 0
-1 -6 -7 102 0
-1 -5 -8 102 0
-1 -4 -9 102 0
-2 -6 -8 102 0
-2 -5 -9 102 0
-3 -6 -9 103 0
-2 -5 -8 104 0
-3 -5 -8 104 0
-3 -4 -8 104 0
-3 -4 -7 104 0
-12 -15 108 0
-11 -15 108 0
-12 -14 107 0
-11 -14 107 0
-10 -15 107 0
-12 -13 106 0
-11 -13 106 0
-10 -14 106 0
-10 -13 105 0
-16 109 0
-19 112 0
-22 -24 111 0
-17 110 0
-28 113 0
-36 -41 -42 116 0
-38 -39 -44 117 0
-26 114 0
-30 115 0
-101 201 0
-102 202 0
-103 203 0
-105 205 0
-106 202 0
-109 202 0
-111 204 0
-112 206 0
-113 204 0
-114 208 0
-110 207 0
-115 201 0
-116 202 0
-117 201 0
-101 -104 0
-101 -103 0
-102 -104 0
-105 -108 0
-105 -107 0
-106 -108 0
