p cnf 215 47
1 2 3 0
-1 -2 0
-1 -3 0
-2 -3 0
4 5 6 0
-4 -5 0
-4 -6 0
-5 -6 0
7 8 9 0
-7 -8 0
-7 -9 0
-8 -9 0
10 11 12 0
-10 -11 0
-10 -12 0
-11 -12 0
13 14 15 0
-13 -14 0
-13 -15 0
-14 -15 0
-1 -6 -9 101 0
-101 201 0
-1 -6 -8 102 0
-102 202 0
-2 -5 -8 104 0
-3 -6 -9 103 0
-103 203 0
-12 -15 108 0
-12 -14 107 0
-10 -13 105 0
-105 201 0
-11 -13 106 0
-106 202 0
-16 109 0
-109 201 0
-17 110 0
-19 112 0
-112 202 0
-22 -24 111 0
-111 201 0
-28 113 0
-113 202 0
-26 114 0
-114 201 0
-30 115 0
-115 201 0
-101 -104 0
-103 -101 0
